c B(2) E(2,2) R(2) R(1) E(2,1) E(1,2) B(1) B(0) E(2,0) R(0) E(0,2) E(1,1) E(1,0) E(0,1) E(0,0)
c 1 2 3 4 5 6 7 8 9 10 11 12 13 14 15
p cnf 15 24
-15 0
-12 0
-2 0
8 10 0
7 4 0
1 3 0
14 -13 0
11 -9 0
13 -14 0
6 -5 0
9 -11 0
5 -6 0
15 14 11 0
13 12 6 0
9 5 2 0
-8 -10 0
-7 -4 0
-1 -3 0
8 7 -13 0
8 1 -9 0
7 1 -5 0
10 4 -13 0
10 3 -9 0
4 3 -5 0
